n = 28;
lu = [|-192, 320
      |-723, 467
      |489, 554
      |-354, -258
      |-685, 29
      |-14, 529
      |-618, -510
      |-769, 161
      |-288, 285
      |-732, -636
      |-457, 443
      |38, 303
      |-71, 556
      |-646, 312
      |-736, 38
      |-275, 368
      |-211, 592
      |94, 778
      |-589, 374
      |-214, 596
      |367, 524
      |-556, 472
      |-151, 228
      |-520, -152
      |-268, -146
      |-620, 254
      |-501, -286
      |-140, 648|];
